NAME: instance_9
TYPE: TSP
COMMENT: 9-city problem
DIMENSION: 9
EDGE_WEIGHT_TYPE: EUC_2D
NODE_COORD_SECTION
0 436 527
1 377 118
2 287 238
3 747 823
4 149 485
5 147 222
6 898 961
7 133 949
8 920 997
EOF
